(set-info :smt-lib-version 2.6)
(set-logic QF_UFLRA)
(set-info :source |
MathSat group

|)
(set-info :category "random")
(set-info :status sat)
(declare-fun x0 () Real)
(declare-fun x1 () Real)
(declare-fun x2 () Real)
(declare-fun x3 () Real)
(declare-fun x4 () Real)
(declare-fun x5 () Real)
(declare-fun x6 () Real)
(declare-fun x7 () Real)
(declare-fun x8 () Real)
(declare-fun x9 () Real)
(declare-fun x10 () Real)
(declare-fun x11 () Real)
(declare-fun x12 () Real)
(declare-fun x13 () Real)
(declare-fun x14 () Real)
(declare-fun x15 () Real)
(declare-fun x16 () Real)
(declare-fun x17 () Real)
(declare-fun x18 () Real)
(declare-fun x19 () Real)
(declare-fun x20 () Real)
(declare-fun x21 () Real)
(declare-fun x22 () Real)
(declare-fun x23 () Real)
(declare-fun x24 () Real)
(declare-fun x25 () Real)
(declare-fun x26 () Real)
(declare-fun x27 () Real)
(declare-fun x28 () Real)
(declare-fun x29 () Real)
(declare-fun x30 () Real)
(declare-fun x31 () Real)
(declare-fun x32 () Real)
(declare-fun x33 () Real)
(declare-fun x34 () Real)
(declare-fun x35 () Real)
(declare-fun x36 () Real)
(declare-fun x37 () Real)
(declare-fun x38 () Real)
(declare-fun x39 () Real)
(declare-fun f0_1 (Real) Real)
(declare-fun f0_2 (Real Real) Real)
(declare-fun f0_3 (Real Real Real) Real)
(declare-fun f0_4 (Real Real Real Real) Real)
(declare-fun P0 () Bool)
(declare-fun P1 () Bool)
(declare-fun P2 () Bool)
(declare-fun P3 () Bool)
(declare-fun P4 () Bool)
(declare-fun P5 () Bool)
(declare-fun P6 () Bool)
(declare-fun P7 () Bool)
(declare-fun P8 () Bool)
(declare-fun P9 () Bool)
(declare-fun P10 () Bool)
(declare-fun P11 () Bool)
(declare-fun P12 () Bool)
(declare-fun P13 () Bool)
(declare-fun P14 () Bool)
(declare-fun P15 () Bool)
(declare-fun P16 () Bool)
(declare-fun P17 () Bool)
(declare-fun P18 () Bool)
(declare-fun P19 () Bool)
(declare-fun P20 () Bool)
(declare-fun P21 () Bool)
(declare-fun P22 () Bool)
(declare-fun P23 () Bool)
(declare-fun P24 () Bool)
(declare-fun P25 () Bool)
(declare-fun P26 () Bool)
(declare-fun P27 () Bool)
(declare-fun P28 () Bool)
(declare-fun P29 () Bool)
(declare-fun P30 () Bool)
(declare-fun P31 () Bool)
(declare-fun P32 () Bool)
(declare-fun P33 () Bool)
(declare-fun P34 () Bool)
(declare-fun P35 () Bool)
(declare-fun P36 () Bool)
(declare-fun P37 () Bool)
(declare-fun P38 () Bool)
(declare-fun P39 () Bool)
(assert (let ((?v_9 (* 32 x29)) (?v_51 (* 50 x19)) (?v_146 (distinct (- (+ (* 50 x24) (* 49 x34)) (* 6 x33)) 34)) (?v_165 (<= (- (- (* 4 x30) (* 3 x24)) (* 10 x21)) 28))) (let ((?v_131 (< (+ (- ?v_9 (* 52 x27)) (* 54 x37)) 54)) (?v_14 (<= (- (- (* 7 x38) (* 54 x24)) (* 10 x14)) 7)) (?v_46 (<= (- (- (* 18 x7) (* 16 x32)) (* 42 x8)) 55)) (?v_83 (= x36 (f0_1 x1))) (?v_104 (= (f0_2 x23 x38) (f0_2 x20 x24))) (?v_1 (distinct x18 (f0_1 x22))) (?v_54 (= (f0_2 x22 x29) (f0_2 x27 x35))) (?v_17 (= x0 (f0_2 x28 x8))) (?v_102 (= (f0_1 x2) (f0_1 x6))) (?v_120 (distinct (f0_2 x17 x28) (f0_1 x4))) (?v_189 (= (f0_2 x9 x10) (f0_1 x0))) (?v_38 (= (f0_1 x29) (f0_2 x15 x1))) (?v_56 (distinct x2 (f0_2 x39 x39))) (?v_0 (f0_1 x31))) (let ((?v_36 (= ?v_0 (f0_2 x34 x11))) (?v_62 (= x36 (f0_2 x5 x11))) (?v_124 (f0_1 x35))) (let ((?v_138 (= ?v_124 (f0_2 x29 x19))) (?v_84 (f0_2 x37 x27))) (let ((?v_159 (= ?v_84 (f0_1 x30))) (?v_163 (distinct (f0_1 x13) ?v_124)) (?v_179 (= (f0_2 x7 x10) ?v_0)) (?v_139 (= ?v_0 x11)) (?v_125 (= x8 (f0_2 x5 x35))) (?v_177 (distinct (f0_2 x17 x22) x28)) (?v_112 (f0_1 x38))) (let ((?v_152 (= x5 ?v_112)) (?v_99 (= (f0_2 x20 x34) (f0_2 x7 x5))) (?v_31 (distinct (f0_1 x27) x8)) (?v_196 (= (f0_2 x33 x16) x36)) (?v_16 (= (f0_2 x3 x5) x4)) (?v_2 (f0_1 x10))) (let ((?v_108 (distinct ?v_2 (f0_2 x37 x31))) (?v_35 (distinct x6 (f0_2 x28 x0))) (?v_185 (distinct (f0_1 x18) (f0_1 x5))) (?v_19 (= (f0_2 x5 x23) x17)) (?v_72 (= x30 x22)) (?v_11 (= x11 ?v_0)) (?v_7 (distinct (f0_1 x21) (f0_1 x23))) (?v_87 (= (f0_1 x12) x30)) (?v_190 (distinct (f0_2 x2 x2) (f0_1 x25))) (?v_18 (distinct x27 (f0_2 x21 x30))) (?v_94 (distinct (f0_1 x39) ?v_112)) (?v_15 (= x8 x14)) (?v_5 (= (f0_2 x3 x26) (f0_2 x33 x19))) (?v_64 (= ?v_2 (f0_1 x34))) (?v_119 (distinct x27 ?v_84)) (?v_13 (= x12 x14)) (?v_21 (not ?v_139))) (let ((?v_201 (not ?v_190)) (?v_97 (not P32)) (?v_58 (not ?v_99)) (?v_37 (not ?v_1)) (?v_28 (not ?v_36)) (?v_117 (not P9)) (?v_33 (not ?v_5)) (?v_6 (not ?v_179)) (?v_109 (not P1)) (?v_77 (not P14)) (?v_40 (not ?v_16)) (?v_24 (not P16)) (?v_12 (not P23)) (?v_48 (not ?v_17)) (?v_147 (not ?v_13)) (?v_10 (not P30)) (?v_107 (not P3)) (?v_20 (not ?v_189)) (?v_116 (not ?v_35)) (?v_161 (not P24)) (?v_81 (not P6)) (?v_42 (not ?v_14)) (?v_95 (not ?v_62)) (?v_167 (not ?v_19)) (?v_164 (not ?v_83)) (?v_66 (not P36)) (?v_50 (not ?v_146)) (?v_89 (not P33)) (?v_155 (not P15)) (?v_34 (not P2)) (?v_41 (not ?v_15)) (?v_67 (not P7)) (?v_129 (not ?v_18)) (?v_26 (not P11)) (?v_75 (not P8)) (?v_29 (not P25)) (?v_45 (not ?v_125)) (?v_105 (not ?v_38))) (let ((?v_191 (or ?v_37 ?v_105)) (?v_188 (not P26)) (?v_74 (not P22)) (?v_86 (not P21)) (?v_160 (not ?v_185)) (?v_115 (not P10)) (?v_71 (not ?v_46)) (?v_193 (not P13)) (?v_118 (not P34)) (?v_85 (not P37)) (?v_168 (not ?v_7)) (?v_98 (not ?v_54)) (?v_63 (not ?v_56)) (?v_61 (not P31)) (?v_92 (not ?v_165)) (?v_103 (not P12)) (?v_208 (or ?v_66 P39)) (?v_101 (not ?v_31)) (?v_175 (not ?v_72))) (let ((?v_186 (or ?v_175 P16)) (?v_82 (not P39)) (?v_158 (not ?v_64)) (?v_111 (not P35)) (?v_137 (not ?v_102)) (?v_197 (not ?v_108)) (?v_153 (not P0)) (?v_178 (not ?v_152)) (?v_198 (not P17)) (?v_121 (not P4)) (?v_180 (not ?v_11)) (?v_172 (not ?v_120)) (?v_133 (not P29)) (?v_145 (not ?v_163)) (?v_142 (not P28)) (?v_173 (not ?v_104)) (?v_132 (not P20)) (?v_148 (not ?v_87)) (?v_135 (not P38)) (?v_176 (not ?v_138)) (?v_206 (not ?v_131)) (?v_174 (not P5)) (?v_171 (not ?v_159)) (?v_202 (not ?v_119)) (?v_181 (not ?v_177)) (?v_194 (not P19)) (?v_187 (not ?v_94)) (?v_199 (not P27)) (?v_200 (not P18)) (?v_205 (not ?v_196)) (?v_91 (<= (+ (* 41 x3) (* 17 x11) (* 3 x6)) 48))) (let ((?v_128 (not ?v_91)) (?v_88 (<= (- (* 6 x37) (* 38 x36)) 26)) (?v_134 (distinct (+ ?v_9 (* 39 x39)) 27)) (?v_23 (<= (+ (* 20 x4) (* 14 x23) (* 25 x9)) 30))) (let ((?v_25 (not ?v_23)) (?v_169 (not ?v_134)) (?v_211 (or ?v_88 ?v_139)) (?v_207 (not ?v_88)) (?v_69 (distinct (- (- (* (- 38) x7) (* 46 x7)) (* 6 x20)) (- 44))) (?v_93 (<= (- (- (* 21 x21) (* 36 x30)) (* 18 x31)) (- 35))) (?v_3 (< (- (+ (* 51 x12) (* 17 x20)) (* 4 x5)) (- 30)))) (let ((?v_49 (not ?v_3)) (?v_8 (= (- (+ (* 49 x32) (* 6 x12)) (* 50 x26)) (- 34))) (?v_113 (<= (- (- (* (- 29) x28) (* 7 x19)) (* 44 x35)) (- 54)))) (let ((?v_154 (not ?v_113)) (?v_52 (< (- (* 5 x37) (* 7 x36)) (- 28)))) (let ((?v_55 (not ?v_52)) (?v_43 (distinct (+ (- (* (- 33) x12) (* 53 x37)) (* 52 x37)) (- 35))) (?v_4 (<= (+ (- (* 14 x21) (* 6 x8)) (* 50 x11)) (- 24)))) (let ((?v_130 (not ?v_4)) (?v_32 (< (+ (* (- 9) x9) (* 37 x15) (* 48 x10)) (- 34))) (?v_157 (not ?v_8)) (?v_27 (<= (+ (- (* 26 x27) (* 38 x24)) (* 49 x23)) (- 22)))) (let ((?v_44 (not ?v_27)) (?v_106 (= (- (+ (* 24 x31) x36) (* 55 x25)) (- 50)))) (let ((?v_183 (not ?v_106)) (?v_53 (< (- (- (* 55 x26) (* 53 x7)) (* 27 x20)) (- 43))) (?v_30 (distinct (- (+ (* 10 x33) (* 48 x27)) (* 5 x6)) (- 27)))) (let ((?v_73 (not ?v_30)) (?v_22 (distinct (+ (* (- 51) x31) (* 53 x27) (* 39 x32)) (- 22))) (?v_68 (< (- (- (* (- 53) x28) (* 18 x12)) (* 28 x8)) 0)) (?v_39 (<= (- (+ (* (- 35) x28) (* 6 x16)) (* 8 x20)) (- 49))) (?v_78 (<= (+ (- (* (- 12) x12) (* 19 x14)) (* 55 x18)) (- 2)))) (let ((?v_79 (not ?v_78)) (?v_57 (not ?v_39)) (?v_96 (<= (+ (- (* (- 40) x17) (* 3 x5)) (* 4 x27)) (- 50))) (?v_65 (<= (- (+ (* (- 29) x35) (* 48 x15)) (* 48 x6)) 14)) (?v_47 (<= (- (- (* 39 x17) (* 28 x11)) (* 30 x16)) (- 7)))) (let ((?v_170 (or ?v_188 ?v_47)) (?v_166 (< (+ (* (- 33) x15) (* 25 x25) (* 35 x36)) 10)) (?v_151 (not ?v_47)) (?v_156 (< (- (- (* 4 x0) (* 42 x1)) ?v_51) (- 16)))) (let ((?v_114 (not ?v_156)) (?v_60 (<= (+ (- (* (- 17) x34) (* 47 x22)) ?v_51) 35))) (let ((?v_110 (not ?v_60)) (?v_140 (not ?v_53)) (?v_127 (not ?v_22)) (?v_59 (< (- (- (* (- 43) x20) (* 16 x26)) (* 26 x1)) 24))) (let ((?v_182 (not ?v_59)) (?v_76 (< (- (- (* 24 x30) (* 25 x32)) (* 2 x29)) (- 55))) (?v_143 (<= (+ (* (- 4) x30) (* 28 x35) (* 31 x19)) (- 45))) (?v_70 (not ?v_68)) (?v_80 (not ?v_32)) (?v_126 (not ?v_69)) (?v_90 (<= (+ (- (* (- 29) x11) (* 18 x3)) (* 34 x35)) 47))) (let ((?v_209 (not ?v_90)) (?v_150 (not ?v_43)) (?v_100 (not ?v_76)) (?v_136 (< (+ (* 14 x3) (* 31 x28) (* 5 x15)) (- 13))) (?v_184 (< (+ (* (- 4) x24) (* 8 x12) (* 28 x3)) 14))) (let ((?v_122 (not ?v_184)) (?v_123 (not ?v_96)) (?v_204 (or ?v_106 ?v_107)) (?v_141 (not ?v_65)) (?v_162 (not ?v_93)) (?v_144 (not ?v_136)) (?v_192 (< (- (- (* (- 5) x33) (* 36 x4)) (* 5 x12)) 51))) (let ((?v_203 (not ?v_192)) (?v_149 (<= (+ (* 43 x29) (* 34 x39) (* 23 x3)) (- 32))) (?v_210 (or ?v_64 ?v_93))) (let ((?v_195 (not ?v_149))) (and (and (and (and (and (and (and (and (and (and (and (and (and (and (and (and (and (and (and (and (and (and (and (and (and (and (and (and (and (and (and (and (and (and (and (and (and (and (and (and (and (and (and (and (and (and (and (and (and (and (and (and (and (and (and (and (and (and (and (and (and (and (and (and (and (and (and (and (and (and (and (and (and (and (and (and (and (and (and (and (and (and (and (and (and (and (and (and (and (and (and (and (and (and (and (and (and (and (and (and (and (and (and (and (and (and (and (and (and (and (and (and (and (and (and (and (and (and (and (and (and (and (and (and (and (and (and (and (and (and (and (and (and (and (and (and (and (and (and (and (and (and (and (and (and (and (and (and (and (and (and (and (and (and (and (and (and (and (and (and (and (and (and (and (and (and (and (and (and (and (and (and (and (and (and (and (and (and (and (and (and (and (and (and (and (and (and (and (and (and (and (and (and (and (and (and (and (and (and (and (and (and (and (and (and (and (and (and (and (and (and (and (and (and (and (and (and (and (and (and (and (and (and (and (and (and (and (and (and (and (and (and (and (and (and (and (and (and (and (and (and (and (and (and (and (and (and (and (and (and (and (and (and (and (and (and (and (and (and (and (and (and (and (and (and (and (and (and (and (and (and (and (and (and (and (and (and (and (and (and (and (and (and (and (and (and (and (and (and (and (and (and (and (and (and (and (and (and (and (and (and (and (and (and (and (and (and (and (and (and (and (and (and (and (and (and (and (and (and (and (and (and (and (and (and (and (and (and (and (and (and (and (and (and (and (and (and (and (and (and (and (and (and (and (and (and (and (and (and (and (and (and (and (and (and (and (and (and (and (and (and (and (and (and (and (and (and (and (and (and (and (and (and (and (and (and (and (and (and (and (and (and (and (and (and (and (and (and (and (and (and (and (and (and (and (and (and (and (and (and (and (and (and (and (and (and (and (and (and (and (and (and (and (and (and (and (and (and (and (and (and (and (and (and (and (and (and (and (and (and (and (and (and (and (and (and (and (and (and (and (and (and (and (and (and (and (and (and (and (and (and (and (and (and (and (and (and (and (and (and (and (and (and (and (and (and (and (and (and (and (and (and (and (and (and (and (and (and (and (or (or P21 ?v_128) ?v_21) (or (or ?v_201 ?v_97) ?v_58)) (or (or ?v_138 ?v_88) ?v_69)) (or (or P36 ?v_11) ?v_72)) (or (or P38 P24) ?v_93)) (or (or ?v_7 ?v_49) ?v_1)) (or (or ?v_87 ?v_37) ?v_8)) (or (or ?v_108 ?v_154) ?v_28)) (or (or ?v_117 ?v_33) ?v_15)) (or (or P17 ?v_31) ?v_159)) (or (or ?v_64 ?v_3) ?v_6)) (or (or P38 ?v_55) ?v_43)) (or (or ?v_109 ?v_130) ?v_77)) (or (or ?v_4 P38) P13)) (or (or ?v_40 ?v_14) P7)) (or (or ?v_5 ?v_24) ?v_12)) (or (or ?v_6 P21) ?v_19)) (or (or P9 ?v_134) ?v_1)) (or (or ?v_32 ?v_7) P38)) (or (or ?v_157 ?v_46) ?v_44)) (or (or P28 P6) ?v_131)) (or (or ?v_48 ?v_147) ?v_10)) (or (or P3 P2) ?v_183)) (or (or P33 ?v_53) ?v_18)) (or (or P19 ?v_10) P33)) (or (or ?v_11 ?v_107) ?v_20)) (or (or ?v_12 ?v_116) ?v_13)) (or (or ?v_161 ?v_81) ?v_73)) (or (or ?v_42 P28) ?v_15)) (or (or ?v_16 ?v_95) ?v_17)) (or (or P32 ?v_18) ?v_22)) (or (or ?v_167 ?v_20) ?v_164)) (or (or ?v_21 ?v_68) P26)) (or (or P14 ?v_38) ?v_66)) (or (or P18 ?v_23) ?v_50)) (or (or ?v_22 ?v_89) P38)) (or (or ?v_155 ?v_25) P1)) (or (or ?v_34 ?v_41) ?v_67)) (or (or P3 ?v_129) ?v_24)) (or (or ?v_26 ?v_24) ?v_25)) (or (or ?v_75 ?v_26) ?v_27)) (or (or ?v_29 ?v_28) ?v_39)) (or (or ?v_29 ?v_30) ?v_14)) (or (or ?v_21 ?v_31) P26)) (or (or P14 P28) ?v_22)) (or (or P9 ?v_45) ?v_5)) (or (or ?v_79 P35) ?v_32)) (or (or ?v_104 P21) P29)) (or (or P1 ?v_33) ?v_56)) (or (or P28 ?v_34) ?v_35)) (or (or ?v_36 P7) P29)) (or ?v_191 ?v_15)) (or (or ?v_57 ?v_40) P2)) (or (or ?v_41 ?v_42) ?v_96)) (or (or ?v_25 P14) ?v_65)) (or ?v_170 ?v_43)) (or (or ?v_74 P28) ?v_18)) (or (or ?v_44 ?v_45) ?v_54)) (or (or ?v_86 ?v_46) ?v_160)) (or (or ?v_115 ?v_166) ?v_151)) (or (or ?v_33 ?v_71) ?v_193)) (or (or ?v_6 ?v_48) ?v_49)) (or (or P37 ?v_50) ?v_114)) (or (or ?v_118 P19) ?v_25)) (or (or ?v_110 ?v_52) ?v_140)) (or (or P33 ?v_54) ?v_49)) (or (or ?v_55 ?v_127) ?v_50)) (or (or ?v_20 ?v_36) P6)) (or (or P25 ?v_26) P9)) (or (or ?v_85 ?v_36) ?v_168)) (or (or ?v_98 ?v_63) P14)) (or (or P16 ?v_57) ?v_182)) (or (or ?v_58 ?v_59) ?v_17)) (or (or ?v_61 ?v_92) ?v_29)) (or (or ?v_60 ?v_49) P36)) (or (or ?v_13 P11) P9)) (or (or ?v_76 ?v_29) P16)) (or (or ?v_61 ?v_3) ?v_32)) (or (or ?v_23 ?v_62) P38)) (or (or ?v_63 ?v_45) ?v_143)) (or (or ?v_64 ?v_103) P28)) (or (or ?v_65 ?v_196) ?v_50)) (or ?v_208 P32)) (or (or ?v_94 ?v_41) P15)) (or (or ?v_102 P1) ?v_101)) (or (or ?v_67 ?v_70) ?v_39)) (or (or ?v_24 ?v_80) ?v_126)) (or (or ?v_4 ?v_209) ?v_67)) (or (or ?v_70 ?v_71) ?v_150)) (or ?v_186 ?v_73)) (or (or ?v_74 ?v_75) P17)) (or (or ?v_68 ?v_15) ?v_76)) (or (or ?v_77 ?v_78) P7)) (or (or P4 ?v_82) ?v_79)) (or (or P31 ?v_80) P5)) (or (or ?v_81 ?v_82) ?v_100)) (or (or ?v_83 ?v_119) ?v_85)) (or (or ?v_76 ?v_86) ?v_7)) (or (or ?v_59 ?v_136) ?v_12)) (or (or ?v_87 ?v_45) P34)) (or (or P35 ?v_88) ?v_71)) (or (or ?v_89 ?v_33) P36)) (or (or ?v_90 P30) ?v_91)) (or (or ?v_92 ?v_22) ?v_93)) (or (or ?v_158 ?v_122) P37)) (or (or ?v_94 ?v_95) ?v_123)) (or (or ?v_28 P29) ?v_74)) (or (or P3 ?v_97) ?v_98)) (or (or ?v_111 ?v_99) ?v_53)) (or (or ?v_100 ?v_101) P7)) (or (or ?v_41 ?v_137) P20)) (or (or ?v_103 P39) ?v_104)) (or (or ?v_75 P27) ?v_47)) (or (or ?v_53 ?v_19) ?v_105)) (or (or ?v_103 ?v_83) P33)) (or ?v_204 ?v_197)) (or (or P20 ?v_58) ?v_86)) (or (or ?v_109 ?v_110) ?v_141)) (or (or ?v_65 ?v_111) ?v_60)) (or (or ?v_73 P3) ?v_89)) (or (or ?v_153 ?v_178) ?v_198)) (or (or ?v_121 ?v_113) ?v_114)) (or (or P16 P29) ?v_15)) (or (or ?v_24 ?v_16) ?v_41)) (or (or ?v_80 ?v_115) ?v_116)) (or (or ?v_68 ?v_180) P7)) (or (or P33 ?v_117) ?v_118)) (or (or P26 ?v_79) ?v_33)) (or (or ?v_119 ?v_172) ?v_108)) (or (or ?v_22 ?v_32) P11)) (or (or ?v_133 P23) ?v_120)) (or (or ?v_22 ?v_36) ?v_64)) (or (or ?v_121 ?v_122) ?v_98)) (or (or ?v_1 ?v_123) ?v_89)) (or (or ?v_47 P29) ?v_89)) (or (or ?v_83 ?v_145) ?v_45)) (or (or ?v_142 ?v_125) P16)) (or (or P18 P19) P31)) (or (or ?v_36 ?v_90) ?v_173)) (or (or P16 ?v_40) ?v_60)) (or (or ?v_66 ?v_64) P29)) (or (or P38 ?v_58) ?v_126)) (or (or ?v_127 ?v_128) ?v_129)) (or (or ?v_65 ?v_39) ?v_16)) (or (or ?v_103 ?v_132) P8)) (or (or P6 ?v_41) ?v_130)) (or (or P35 ?v_115) ?v_50)) (or (or ?v_148 P4) ?v_131)) (or (or P14 ?v_6) ?v_162)) (or (or ?v_23 P1) P26)) (or (or ?v_132 P12) ?v_133)) (or (or ?v_101 ?v_169) ?v_17)) (or (or ?v_19 ?v_135) ?v_40)) (or (or ?v_135 ?v_59) ?v_33)) (or (or ?v_10 ?v_55) ?v_128)) (or (or ?v_144 ?v_120) ?v_18)) (or (or ?v_48 ?v_58) ?v_49)) (or (or ?v_102 ?v_90) ?v_60)) (or (or ?v_119 P22) ?v_106)) (or (or P9 ?v_177) ?v_56)) (or (or ?v_85 P38) ?v_123)) (or (or ?v_121 ?v_137) ?v_138)) (or (or ?v_102 ?v_87) ?v_176)) (or (or ?v_20 P34) ?v_71)) (or (or ?v_69 ?v_89) ?v_87)) (or (or ?v_137 ?v_15) ?v_139)) (or (or ?v_60 P18) ?v_128)) (or (or ?v_140 ?v_24) ?v_88)) (or (or ?v_17 ?v_3) ?v_141)) (or (or ?v_62 P29) P33)) (or (or ?v_121 P14) ?v_142)) (or (or ?v_45 P39) P0)) (or (or ?v_143 ?v_144) ?v_145)) (or (or ?v_22 ?v_131) ?v_141)) (or (or ?v_6 ?v_146) ?v_53)) (or (or ?v_147 P32) ?v_39)) (or (or ?v_203 ?v_115) ?v_149)) (or (or ?v_78 ?v_67) P23)) (or (or ?v_148 ?v_149) ?v_90)) (or (or ?v_80 ?v_150) ?v_33)) (or (or ?v_151 ?v_152) ?v_206)) (or (or ?v_153 ?v_154) ?v_45)) (or (or ?v_52 ?v_105) ?v_145)) (or (or ?v_113 ?v_155) ?v_16)) (or (or ?v_6 ?v_40) P39)) (or (or P17 P12) ?v_42)) (or (or ?v_156 P17) ?v_23)) (or (or ?v_157 ?v_174) ?v_39)) (or (or ?v_158 ?v_19) ?v_171)) (or (or ?v_10 ?v_62) ?v_160)) (or (or ?v_122 ?v_94) ?v_107)) (or ?v_210 P32)) (or (or ?v_86 ?v_161) P32)) (or (or ?v_162 ?v_159) ?v_1)) (or (or ?v_163 ?v_45) ?v_147)) (or (or ?v_164 ?v_42) ?v_122)) (or (or P8 ?v_82) ?v_39)) (or (or ?v_202 ?v_7) ?v_62)) (or (or ?v_165 ?v_126) ?v_166)) (or (or ?v_167 ?v_146) ?v_69)) (or (or ?v_61 ?v_131) ?v_155)) (or (or ?v_59 ?v_150) P33)) (or (or ?v_104 ?v_94) ?v_114)) (or (or ?v_168 ?v_110) P35)) (or (or ?v_141 P9) P24)) (or (or ?v_11 P25) ?v_169)) (or (or ?v_135 ?v_44) P31)) (or (or ?v_23 ?v_67) ?v_95)) (or (or ?v_45 ?v_73) ?v_74)) (or (or ?v_52 ?v_165) P38)) (or (or P30 ?v_73) ?v_83)) (or (or P4 ?v_80) ?v_46)) (or (or ?v_74 ?v_138) P19)) (or ?v_170 ?v_44)) (or (or ?v_137 ?v_195) ?v_171)) (or (or P32 ?v_28) P33)) (or (or ?v_172 ?v_107) ?v_162)) (or (or P28 ?v_22) ?v_173)) (or (or P3 ?v_10) ?v_12)) (or (or P22 P6) ?v_101)) (or (or P5 ?v_174) ?v_121)) (or (or ?v_175 ?v_52) P16)) (or (or ?v_120 ?v_16) P38)) (or (or ?v_64 ?v_176) ?v_38)) (or ?v_211 ?v_44)) (or (or ?v_25 ?v_57) P5)) (or (or ?v_83 ?v_58) ?v_24)) (or (or ?v_181 ?v_141) ?v_44)) (or (or ?v_77 ?v_168) P27)) (or (or P8 ?v_116) ?v_178)) (or (or P13 ?v_148) ?v_47)) (or (or ?v_120 ?v_165) ?v_70)) (or (or ?v_92 ?v_21) ?v_62)) (or (or ?v_194 ?v_78) ?v_179)) (or (or ?v_147 ?v_82) ?v_71)) (or (or P13 P26) ?v_142)) (or (or ?v_22 ?v_187) ?v_89)) (or (or ?v_80 ?v_180) ?v_79)) (or (or ?v_64 ?v_138) ?v_106)) (or (or ?v_75 P19) ?v_181)) (or (or P23 ?v_90) ?v_182)) (or (or ?v_142 ?v_137) ?v_121)) (or (or ?v_183 ?v_71) P39)) (or (or ?v_49 ?v_184) ?v_96)) (or (or ?v_107 ?v_56) ?v_58)) (or (or ?v_164 ?v_167) ?v_185)) (or (or ?v_7 ?v_47) ?v_171)) (or (or ?v_152 ?v_59) ?v_64)) (or (or ?v_133 P32) P28)) (or (or ?v_71 ?v_151) P29)) (or ?v_186 ?v_18)) (or (or ?v_127 ?v_18) P32)) (or (or P5 ?v_187) ?v_149)) (or (or ?v_14 ?v_35) P26)) (or (or ?v_98 ?v_127) ?v_163)) (or (or ?v_57 ?v_125) ?v_145)) (or (or ?v_103 ?v_121) ?v_131)) (or (or P9 ?v_27) ?v_199)) (or (or ?v_32 ?v_169) ?v_20)) (or (or P31 ?v_173) ?v_188)) (or (or ?v_106 ?v_66) ?v_188)) (or (or ?v_66 ?v_176) ?v_11)) (or (or ?v_189 P28) ?v_178)) (or (or P4 ?v_64) P16)) (or (or ?v_148 ?v_20) ?v_96)) (or (or ?v_44 P31) P4)) (or (or ?v_56 ?v_113) ?v_50)) (or (or ?v_178 ?v_30) ?v_190)) (or (or P0 ?v_178) P18)) (or (or P36 ?v_126) ?v_114)) (or (or ?v_114 ?v_10) ?v_85)) (or (or P19 ?v_52) ?v_57)) (or (or ?v_30 ?v_67) ?v_65)) (or ?v_191 ?v_11)) (or (or P39 P11) ?v_68)) (or (or P11 ?v_144) ?v_192)) (or (or ?v_44 ?v_58) ?v_114)) (or (or ?v_18 ?v_168) ?v_27)) (or (or P6 ?v_102) ?v_95)) (or (or ?v_167 ?v_123) ?v_183)) (or (or ?v_70 ?v_158) ?v_175)) (or (or ?v_61 ?v_96) ?v_168)) (or (or ?v_164 ?v_180) ?v_44)) (or (or ?v_11 ?v_13) ?v_132)) (or (or ?v_180 ?v_158) ?v_14)) (or (or ?v_154 ?v_71) ?v_193)) (or (or ?v_73 ?v_194) ?v_195)) (or (or ?v_17 ?v_123) ?v_61)) (or (or ?v_83 P28) P34)) (or (or P17 ?v_160) ?v_176)) (or (or ?v_72 ?v_82) ?v_160)) (or (or ?v_117 ?v_165) ?v_137)) (or (or ?v_141 ?v_93) P12)) (or (or ?v_185 ?v_185) ?v_15)) (or (or ?v_66 (not ?v_143)) ?v_93)) (or (or ?v_118 P17) ?v_119)) (or (or ?v_123 ?v_180) P23)) (or (or ?v_61 ?v_158) ?v_117)) (or (or ?v_200 ?v_5) ?v_71)) (or (or ?v_62 ?v_152) ?v_196)) (or (or ?v_163 ?v_91) ?v_129)) (or (or P30 ?v_197) ?v_183)) (or (or ?v_161 P3) ?v_130)) (or (or ?v_139 ?v_195) ?v_47)) (or (or ?v_65 P8) ?v_160)) (or (or ?v_198 P9) ?v_28)) (or (or ?v_105 ?v_18) ?v_193)) (or (or ?v_43 P24) (not ?v_166))) (or (or ?v_154 P10) ?v_66)) (or (or ?v_66 ?v_175) ?v_169)) (or (or ?v_93 ?v_41) ?v_85)) (or (or ?v_16 ?v_72) ?v_109)) (or (or ?v_54 ?v_56) ?v_7)) (or (or ?v_108 ?v_136) P22)) (or (or ?v_175 ?v_20) ?v_61)) (or (or P33 ?v_150) P16)) (or (or ?v_187 ?v_75) ?v_177)) (or (or ?v_199 ?v_169) ?v_44)) (or (or ?v_184 ?v_73) ?v_189)) (or (or ?v_23 ?v_94) ?v_110)) (or (or ?v_138 ?v_132) ?v_127)) (or (or ?v_78 ?v_76) ?v_56)) (or (or ?v_178 ?v_52) ?v_188)) (or (or ?v_36 ?v_82) ?v_134)) (or (or ?v_194 ?v_156) ?v_94)) (or (or ?v_49 ?v_13) ?v_54)) (or (or ?v_200 ?v_25) ?v_197)) (or (or ?v_190 ?v_87) ?v_162)) (or (or P38 P37) ?v_57)) (or (or ?v_126 ?v_201) ?v_39)) (or (or ?v_71 ?v_74) ?v_141)) (or (or ?v_179 ?v_140) P17)) (or (or ?v_159 ?v_156) ?v_177)) (or (or ?v_148 P39) ?v_103)) (or (or ?v_41 ?v_135) ?v_115)) (or (or P4 ?v_68) ?v_67)) (or (or P7 ?v_65) ?v_33)) (or (or ?v_202 P8) ?v_28)) (or (or ?v_130 ?v_45) ?v_165)) (or (or ?v_168 ?v_45) ?v_147)) (or (or ?v_68 ?v_10) ?v_1)) (or (or ?v_181 ?v_55) ?v_6)) (or (or ?v_190 P15) ?v_61)) (or (or P36 ?v_205) ?v_63)) (or (or P1 ?v_172) ?v_130)) (or (or ?v_118 ?v_163) ?v_67)) (or (or P13 ?v_53) ?v_157)) (or (or ?v_3 ?v_129) P7)) (or (or ?v_200 ?v_159) ?v_106)) (or (or ?v_107 ?v_65) P15)) (or (or ?v_185 P2) ?v_122)) (or (or ?v_145 ?v_28) ?v_129)) (or (or P17 ?v_76) ?v_19)) (or (or ?v_18 ?v_13) ?v_69)) (or (or ?v_13 ?v_7) P34)) (or (or ?v_203 P31) ?v_157)) (or (or ?v_193 ?v_105) ?v_3)) (or (or P27 ?v_168) ?v_21)) (or (or ?v_154 ?v_19) ?v_26)) (or (or ?v_108 ?v_34) ?v_11)) (or (or ?v_113 ?v_113) ?v_147)) (or (or P24 ?v_184) ?v_71)) (or ?v_204 ?v_5)) (or (or ?v_135 ?v_80) ?v_72)) (or (or ?v_81 ?v_100) ?v_142)) (or (or ?v_53 ?v_102) P20)) (or (or ?v_178 ?v_50) ?v_95)) (or (or ?v_135 ?v_146) ?v_67)) (or (or ?v_146 ?v_141) ?v_80)) (or (or ?v_75 ?v_111) ?v_118)) (or (or ?v_195 ?v_185) ?v_180)) (or (or ?v_49 ?v_1) ?v_40)) (or (or P8 P18) ?v_155)) (or (or ?v_19 ?v_56) ?v_130)) (or (or ?v_46 ?v_82) ?v_142)) (or (or ?v_202 P27) ?v_203)) (or (or ?v_8 ?v_150) ?v_111)) (or (or ?v_70 ?v_113) ?v_20)) (or (or ?v_117 ?v_167) ?v_184)) (or (or P37 ?v_1) ?v_69)) (or (or P28 ?v_38) ?v_147)) (or (or ?v_149 ?v_194) P5)) (or (or ?v_140 ?v_54) ?v_74)) (or (or ?v_111 P2) ?v_180)) (or (or ?v_67 ?v_175) ?v_36)) (or (or ?v_28 ?v_34) ?v_184)) (or (or ?v_149 P31) ?v_198)) (or (or ?v_10 ?v_205) ?v_166)) (or (or P26 P13) ?v_28)) (or (or ?v_114 P29) ?v_8)) (or (or ?v_80 ?v_23) ?v_97)) (or (or P3 ?v_14) ?v_149)) (or (or ?v_77 ?v_114) ?v_83)) (or (or P13 ?v_3) ?v_207)) (or (or ?v_68 ?v_154) ?v_94)) (or (or ?v_192 ?v_203) ?v_20)) (or (or ?v_38 ?v_47) ?v_123)) (or (or ?v_206 ?v_145) ?v_67)) (or (or ?v_146 ?v_116) ?v_17)) (or (or ?v_198 ?v_39) ?v_174)) (or (or P5 ?v_49) ?v_35)) (or (or ?v_15 ?v_32) ?v_185)) (or (or ?v_192 P32) ?v_34)) (or (or ?v_14 ?v_53) ?v_29)) (or (or ?v_13 ?v_173) ?v_119)) (or (or ?v_68 ?v_163) ?v_137)) (or (or ?v_81 P2) ?v_138)) (or (or ?v_12 ?v_120) P13)) (or (or ?v_123 ?v_168) ?v_74)) (or (or ?v_178 ?v_106) ?v_54)) (or (or ?v_132 ?v_56) ?v_109)) (or (or ?v_141 ?v_89) ?v_144)) (or (or ?v_26 ?v_103) ?v_196)) (or (or ?v_63 ?v_165) ?v_29)) (or (or ?v_89 ?v_88) ?v_71)) (or (or ?v_20 ?v_93) ?v_141)) (or (or ?v_189 ?v_138) ?v_130)) (or (or ?v_152 ?v_53) ?v_101)) (or (or ?v_121 P25) ?v_79)) (or (or ?v_132 ?v_19) ?v_128)) (or (or ?v_174 ?v_98) ?v_132)) (or (or ?v_178 ?v_56) ?v_190)) (or (or ?v_64 ?v_18) P11)) (or (or ?v_157 P22) P34)) (or (or ?v_94 ?v_190) P3)) (or (or P27 ?v_190) P20)) (or (or ?v_113 P22) P19)) (or (or ?v_118 P36) ?v_12)) (or (or ?v_72 ?v_80) P23)) (or (or ?v_54 ?v_145) P20)) (or (or ?v_5 ?v_173) ?v_4)) (or (or ?v_150 ?v_22) ?v_156)) (or (or ?v_74 ?v_187) ?v_120)) (or (or ?v_12 ?v_114) P8)) (or (or ?v_162 ?v_134) ?v_133)) (or (or ?v_159 ?v_136) ?v_5)) (or (or ?v_147 ?v_169) ?v_86)) (or (or ?v_192 ?v_139) ?v_184)) (or (or ?v_17 ?v_35) ?v_8)) (or (or ?v_132 ?v_163) ?v_98)) (or (or ?v_30 ?v_145) P6)) (or (or ?v_117 ?v_120) ?v_108)) (or (or ?v_82 ?v_184) P32)) (or (or ?v_33 ?v_20) ?v_175)) (or (or ?v_207 ?v_65) ?v_60)) (or ?v_208 ?v_26)) (or (or P9 ?v_135) ?v_114)) (or (or ?v_70 ?v_177) ?v_139)) (or (or ?v_76 ?v_188) P34)) (or (or ?v_142 ?v_28) ?v_209)) (or (or ?v_99 P36) P15)) (or (or ?v_3 ?v_1) P8)) (or (or ?v_157 P5) ?v_60)) (or (or ?v_39 ?v_200) ?v_151)) (or (or ?v_150 ?v_189) ?v_183)) (or ?v_210 P31)) (or (or ?v_69 ?v_127) ?v_72)) (or (or ?v_128 ?v_145) ?v_65)) (or (or ?v_74 ?v_53) ?v_120)) (or (or ?v_48 ?v_91) ?v_26)) (or (or ?v_105 ?v_172) ?v_37)) (or (or P13 ?v_165) ?v_62)) (or (or ?v_177 ?v_96) ?v_54)) (or (or ?v_6 P8) ?v_79)) (or (or ?v_131 ?v_1) ?v_167)) (or (or ?v_160 ?v_196) P9)) (or (or ?v_174 ?v_164) ?v_25)) (or (or ?v_28 ?v_139) ?v_153)) (or (or P32 ?v_190) ?v_49)) (or (or P17 ?v_72) ?v_92)) (or (or ?v_195 ?v_172) ?v_193)) (or (or ?v_91 ?v_81) ?v_150)) (or (or ?v_165 P19) ?v_188)) (or (or ?v_85 ?v_197) ?v_70)) (or (or ?v_161 P24) ?v_159)) (or (or ?v_179 P24) P30)) (or (or P36 ?v_173) ?v_205)) (or (or ?v_200 ?v_4) ?v_196)) (or (or ?v_26 ?v_21) ?v_188)) (or ?v_211 ?v_167)))))))))))))))))))))))))))))))
(check-sat)
(exit)
